p cnf 963 2472
51 -696 -1 0
-51 696 0
-51 1 0
52 -51 -3 0
-52 51 0
-52 3 0
53 -697 -698 0
-53 697 0
-53 698 0
54 -53 -5 0
-54 53 0
-54 5 0
55 -699 -700 0
-55 699 0
-55 700 0
56 -7 -6 0
-56 7 0
-56 6 0
57 -56 -8 0
-57 56 0
-57 8 0
58 -701 -55 0
-58 701 0
-58 55 0
59 -10 -702 0
-59 10 0
-59 702 0
60 -59 -703 0
-60 59 0
-60 703 0
61 -704 -58 0
-61 704 0
-61 58 0
62 -13 -705 0
-62 13 0
-62 705 0
63 -62 -706 0
-63 62 0
-63 706 0
64 -707 -61 0
-64 707 0
-64 61 0
65 -16 -15 0
-65 16 0
-65 15 0
66 -65 -708 0
-66 65 0
-66 708 0
67 -709 -64 0
-67 709 0
-67 64 0
68 -19 -710 0
-68 19 0
-68 710 0
69 -68 -8 0
-69 68 0
-69 8 0
70 -711 -67 0
-70 711 0
-70 67 0
71 -20 -698 0
-71 20 0
-71 698 0
72 -71 -712 0
-72 71 0
-72 712 0
73 -713 -70 0
-73 713 0
-73 70 0
74 -16 -14 0
-74 16 0
-74 14 0
75 -74 -714 0
-75 74 0
-75 714 0
76 -715 -73 0
-76 715 0
-76 73 0
77 -716 -717 0
-77 716 0
-77 717 0
78 -77 -23 0
-78 77 0
-78 23 0
79 -718 -76 0
-79 718 0
-79 76 0
80 -25 -24 0
-80 25 0
-80 24 0
81 -80 -719 0
-81 80 0
-81 719 0
82 -720 -79 0
-82 720 0
-82 79 0
83 -721 -722 0
-83 721 0
-83 722 0
84 -83 -723 0
-84 83 0
-84 723 0
85 -724 -82 0
-85 724 0
-85 82 0
86 -725 -726 0
-86 725 0
-86 726 0
87 -86 -727 0
-87 86 0
-87 727 0
88 -728 -85 0
-88 728 0
-88 85 0
89 -729 -8 0
-89 729 0
-89 8 0
90 -89 -22 0
-90 89 0
-90 22 0
91 -730 -88 0
-91 730 0
-91 88 0
92 -731 -726 0
-92 731 0
-92 726 0
93 -92 -33 0
-93 92 0
-93 33 0
94 -732 -91 0
-94 732 0
-94 91 0
95 -733 -7 0
-95 733 0
-95 7 0
96 -95 -17 0
-96 95 0
-96 17 0
97 -734 -94 0
-97 734 0
-97 94 0
98 -25 -2 0
-98 25 0
-98 2 0
99 -98 -735 0
-99 98 0
-99 735 0
100 -736 -97 0
-100 736 0
-100 97 0
101 -34 -702 0
-101 34 0
-101 702 0
102 -101 -27 0
-102 101 0
-102 27 0
103 -737 -100 0
-103 737 0
-103 100 0
104 -738 -1 0
-104 738 0
-104 1 0
105 -104 -10 0
-105 104 0
-105 10 0
106 -739 -103 0
-106 739 0
-106 103 0
107 -740 -16 0
-107 740 0
-107 16 0
108 -107 -733 0
-108 107 0
-108 733 0
109 -741 -106 0
-109 741 0
-109 106 0
110 -742 -743 0
-110 742 0
-110 743 0
111 -110 -744 0
-111 110 0
-111 744 0
112 -745 -109 0
-112 745 0
-112 109 0
113 -722 -717 0
-113 722 0
-113 717 0
114 -113 -8 0
-114 113 0
-114 8 0
115 -746 -112 0
-115 746 0
-115 112 0
116 -742 -705 0
-116 742 0
-116 705 0
117 -116 -17 0
-117 116 0
-117 17 0
118 -747 -115 0
-118 747 0
-118 115 0
119 -39 -733 0
-119 39 0
-119 733 0
120 -119 -21 0
-120 119 0
-120 21 0
121 -748 -118 0
-121 748 0
-121 118 0
122 -749 -750 0
-122 749 0
-122 750 0
123 -122 -751 0
-123 122 0
-123 751 0
124 -752 -121 0
-124 752 0
-124 121 0
125 -35 -721 0
-125 35 0
-125 721 0
126 -125 -11 0
-126 125 0
-126 11 0
127 -753 -124 0
-127 753 0
-127 124 0
128 -32 -754 0
-128 32 0
-128 754 0
129 -128 -10 0
-129 128 0
-129 10 0
130 -755 -127 0
-130 755 0
-130 127 0
131 -756 -40 0
-131 756 0
-131 40 0
132 -131 -717 0
-132 131 0
-132 717 0
133 -757 -130 0
-133 757 0
-133 130 0
134 -717 -6 0
-134 717 0
-134 6 0
135 -134 -29 0
-135 134 0
-135 29 0
136 -758 -133 0
-136 758 0
-136 133 0
137 -725 -697 0
-137 725 0
-137 697 0
138 -137 -759 0
-138 137 0
-138 759 0
139 -760 -136 0
-139 760 0
-139 136 0
140 -761 -42 0
-140 761 0
-140 42 0
141 -140 -23 0
-141 140 0
-141 23 0
142 -762 -139 0
-142 762 0
-142 139 0
143 -742 -729 0
-143 742 0
-143 729 0
144 -143 -744 0
-144 143 0
-144 744 0
145 -763 -142 0
-145 763 0
-145 142 0
146 -710 -726 0
-146 710 0
-146 726 0
147 -146 -708 0
-147 146 0
-147 708 0
148 -764 -145 0
-148 764 0
-148 145 0
149 -765 -696 0
-149 765 0
-149 696 0
150 -149 -11 0
-150 149 0
-150 11 0
151 -766 -148 0
-151 766 0
-151 148 0
152 -68 -706 0
-152 68 0
-152 706 0
153 -767 -151 0
-153 767 0
-153 151 0
154 -45 -731 0
-154 45 0
-154 731 0
155 -154 -22 0
-155 154 0
-155 22 0
156 -768 -153 0
-156 768 0
-156 153 0
157 -98 -744 0
-157 98 0
-157 744 0
158 -769 -156 0
-158 769 0
-158 156 0
159 -36 -1 0
-159 36 0
-159 1 0
160 -159 -721 0
-160 159 0
-160 721 0
161 -770 -158 0
-161 770 0
-161 158 0
162 -42 -19 0
-162 42 0
-162 19 0
163 -162 -717 0
-163 162 0
-163 717 0
164 -771 -161 0
-164 771 0
-164 161 0
165 -30 -8 0
-165 30 0
-165 8 0
166 -165 -5 0
-166 165 0
-166 5 0
167 -772 -164 0
-167 772 0
-167 164 0
168 -45 -9 0
-168 45 0
-168 9 0
169 -168 -43 0
-169 168 0
-169 43 0
170 -773 -167 0
-170 773 0
-170 167 0
171 -726 -697 0
-171 726 0
-171 697 0
172 -171 -721 0
-172 171 0
-172 721 0
173 -774 -170 0
-173 774 0
-173 170 0
174 -16 -696 0
-174 16 0
-174 696 0
175 -174 -721 0
-175 174 0
-175 721 0
176 -775 -173 0
-176 775 0
-176 173 0
177 -735 -696 0
-177 735 0
-177 696 0
178 -177 -776 0
-178 177 0
-178 776 0
179 -777 -176 0
-179 777 0
-179 176 0
180 -46 -731 0
-180 46 0
-180 731 0
181 -180 -727 0
-181 180 0
-181 727 0
182 -778 -179 0
-182 778 0
-182 179 0
183 -756 -717 0
-183 756 0
-183 717 0
184 -183 -726 0
-184 183 0
-184 726 0
185 -779 -182 0
-185 779 0
-185 182 0
186 -36 -26 0
-186 36 0
-186 26 0
187 -186 -21 0
-187 186 0
-187 21 0
188 -780 -185 0
-188 780 0
-188 185 0
189 -781 -26 0
-189 781 0
-189 26 0
190 -189 -723 0
-190 189 0
-190 723 0
191 -782 -188 0
-191 782 0
-191 188 0
192 -27 -731 0
-192 27 0
-192 731 0
193 -192 -783 0
-193 192 0
-193 783 0
194 -784 -191 0
-194 784 0
-194 191 0
195 -19 -726 0
-195 19 0
-195 726 0
196 -195 -22 0
-196 195 0
-196 22 0
197 -785 -194 0
-197 785 0
-197 194 0
198 -733 -9 0
-198 733 0
-198 9 0
199 -198 -25 0
-199 198 0
-199 25 0
200 -786 -197 0
-200 786 0
-200 197 0
201 -15 -2 0
-201 15 0
-201 2 0
202 -201 -14 0
-202 201 0
-202 14 0
203 -787 -200 0
-203 787 0
-203 200 0
204 -735 -731 0
-204 735 0
-204 731 0
205 -204 -11 0
-205 204 0
-205 11 0
206 -788 -203 0
-206 788 0
-206 203 0
207 -759 -32 0
-207 759 0
-207 32 0
208 -207 -789 0
-208 207 0
-208 789 0
209 -790 -206 0
-209 790 0
-209 206 0
210 -727 -28 0
-210 727 0
-210 28 0
211 -210 -5 0
-211 210 0
-211 5 0
212 -791 -209 0
-212 791 0
-212 209 0
213 -792 -34 0
-213 792 0
-213 34 0
214 -213 -5 0
-214 213 0
-214 5 0
215 -793 -212 0
-215 793 0
-215 212 0
216 -726 -794 0
-216 726 0
-216 794 0
217 -216 -723 0
-217 216 0
-217 723 0
218 -795 -215 0
-218 795 0
-218 215 0
219 -738 -27 0
-219 738 0
-219 27 0
220 -219 -714 0
-220 219 0
-220 714 0
221 -796 -218 0
-221 796 0
-221 218 0
222 -797 -756 0
-222 797 0
-222 756 0
223 -222 -31 0
-223 222 0
-223 31 0
224 -798 -221 0
-224 798 0
-224 221 0
225 -765 -799 0
-225 765 0
-225 799 0
226 -225 -749 0
-226 225 0
-226 749 0
227 -800 -224 0
-227 800 0
-227 224 0
228 -756 -28 0
-228 756 0
-228 28 0
229 -228 -703 0
-229 228 0
-229 703 0
230 -801 -227 0
-230 801 0
-230 227 0
231 -738 -696 0
-231 738 0
-231 696 0
232 -231 -789 0
-232 231 0
-232 789 0
233 -802 -230 0
-233 802 0
-233 230 0
234 -38 -24 0
-234 38 0
-234 24 0
235 -234 -722 0
-235 234 0
-235 722 0
236 -803 -233 0
-236 803 0
-236 233 0
237 -799 -11 0
-237 799 0
-237 11 0
238 -237 -789 0
-238 237 0
-238 789 0
239 -804 -236 0
-239 804 0
-239 236 0
240 -9 -6 0
-240 9 0
-240 6 0
241 -240 -39 0
-241 240 0
-241 39 0
242 -805 -239 0
-242 805 0
-242 239 0
243 -24 -697 0
-243 24 0
-243 697 0
244 -243 -35 0
-244 243 0
-244 35 0
245 -806 -242 0
-245 806 0
-245 242 0
246 -807 -808 0
-246 807 0
-246 808 0
247 -246 -761 0
-247 246 0
-247 761 0
248 -809 -245 0
-248 809 0
-248 245 0
249 -742 -34 0
-249 742 0
-249 34 0
250 -249 -712 0
-250 249 0
-250 712 0
251 -810 -248 0
-251 810 0
-251 248 0
252 -710 -15 0
-252 710 0
-252 15 0
253 -252 -729 0
-253 252 0
-253 729 0
254 -811 -251 0
-254 811 0
-254 251 0
255 -18 -7 0
-255 18 0
-255 7 0
256 -255 -712 0
-256 255 0
-256 712 0
257 -812 -254 0
-257 812 0
-257 254 0
258 -742 -9 0
-258 742 0
-258 9 0
259 -258 -751 0
-259 258 0
-259 751 0
260 -813 -257 0
-260 813 0
-260 257 0
261 -735 -30 0
-261 735 0
-261 30 0
262 -261 -46 0
-262 261 0
-262 46 0
263 -814 -260 0
-263 814 0
-263 260 0
264 -213 -722 0
-264 213 0
-264 722 0
265 -815 -263 0
-265 815 0
-265 263 0
266 -24 -696 0
-266 24 0
-266 696 0
267 -266 -807 0
-267 266 0
-267 807 0
268 -816 -265 0
-268 816 0
-268 265 0
269 -759 -703 0
-269 759 0
-269 703 0
270 -269 -47 0
-270 269 0
-270 47 0
271 -817 -268 0
-271 817 0
-271 268 0
272 -721 -754 0
-272 721 0
-272 754 0
273 -272 -712 0
-273 272 0
-273 712 0
274 -818 -271 0
-274 818 0
-274 271 0
275 -13 -4 0
-275 13 0
-275 4 0
276 -275 -722 0
-276 275 0
-276 722 0
277 -819 -274 0
-277 819 0
-277 274 0
278 -42 -10 0
-278 42 0
-278 10 0
279 -278 -11 0
-279 278 0
-279 11 0
280 -820 -277 0
-280 820 0
-280 277 0
281 -46 -29 0
-281 46 0
-281 29 0
282 -281 -751 0
-282 281 0
-282 751 0
283 -821 -280 0
-283 821 0
-283 280 0
284 -42 -697 0
-284 42 0
-284 697 0
285 -284 -717 0
-285 284 0
-285 717 0
286 -822 -283 0
-286 822 0
-286 283 0
287 -34 -725 0
-287 34 0
-287 725 0
288 -287 -3 0
-288 287 0
-288 3 0
289 -823 -286 0
-289 823 0
-289 286 0
290 -37 -799 0
-290 37 0
-290 799 0
291 -290 -731 0
-291 290 0
-291 731 0
292 -824 -289 0
-292 824 0
-292 289 0
293 -15 -696 0
-293 15 0
-293 696 0
294 -293 -716 0
-294 293 0
-294 716 0
295 -825 -292 0
-295 825 0
-295 292 0
296 -18 -726 0
-296 18 0
-296 726 0
297 -296 -50 0
-297 296 0
-297 50 0
298 -826 -295 0
-298 826 0
-298 295 0
299 -49 -754 0
-299 49 0
-299 754 0
300 -299 -50 0
-300 299 0
-300 50 0
301 -827 -298 0
-301 827 0
-301 298 0
302 -39 -716 0
-302 39 0
-302 716 0
303 -302 -761 0
-303 302 0
-303 761 0
304 -828 -301 0
-304 828 0
-304 301 0
305 -27 -19 0
-305 27 0
-305 19 0
306 -305 -11 0
-306 305 0
-306 11 0
307 -829 -304 0
-307 829 0
-307 304 0
308 -808 -717 0
-308 808 0
-308 717 0
309 -308 -22 0
-309 308 0
-309 22 0
310 -830 -307 0
-310 830 0
-310 307 0
311 -735 -3 0
-311 735 0
-311 3 0
312 -311 -22 0
-312 311 0
-312 22 0
313 -831 -310 0
-313 831 0
-313 310 0
314 -792 -756 0
-314 792 0
-314 756 0
315 -314 -20 0
-315 314 0
-315 20 0
316 -832 -313 0
-316 832 0
-316 313 0
317 -797 -708 0
-317 797 0
-317 708 0
318 -317 -5 0
-318 317 0
-318 5 0
319 -833 -316 0
-319 833 0
-319 316 0
320 -716 -11 0
-320 716 0
-320 11 0
321 -320 -23 0
-321 320 0
-321 23 0
322 -834 -319 0
-322 834 0
-322 319 0
323 -231 -712 0
-323 231 0
-323 712 0
324 -835 -322 0
-324 835 0
-324 322 0
325 -26 -18 0
-325 26 0
-325 18 0
326 -325 -22 0
-326 325 0
-326 22 0
327 -836 -324 0
-327 836 0
-327 324 0
328 -756 -11 0
-328 756 0
-328 11 0
329 -328 -29 0
-329 328 0
-329 29 0
330 -837 -327 0
-330 837 0
-330 327 0
331 -7 -697 0
-331 7 0
-331 697 0
332 -331 -723 0
-332 331 0
-332 723 0
333 -838 -330 0
-333 838 0
-333 330 0
334 -34 -16 0
-334 34 0
-334 16 0
335 -334 -33 0
-335 334 0
-335 33 0
336 -839 -333 0
-336 839 0
-336 333 0
337 -756 -24 0
-337 756 0
-337 24 0
338 -337 -706 0
-338 337 0
-338 706 0
339 -840 -336 0
-339 840 0
-339 336 0
340 -41 -25 0
-340 41 0
-340 25 0
341 -340 -717 0
-341 340 0
-341 717 0
342 -841 -339 0
-342 841 0
-342 339 0
343 -43 -28 0
-343 43 0
-343 28 0
344 -343 -744 0
-344 343 0
-344 744 0
345 -842 -342 0
-345 842 0
-345 342 0
346 -40 -726 0
-346 40 0
-346 726 0
347 -346 -751 0
-347 346 0
-347 751 0
348 -843 -345 0
-348 843 0
-348 345 0
349 -731 -703 0
-349 731 0
-349 703 0
350 -349 -47 0
-350 349 0
-350 47 0
351 -844 -348 0
-351 844 0
-351 348 0
352 -7 -2 0
-352 7 0
-352 2 0
353 -352 -8 0
-353 352 0
-353 8 0
354 -845 -351 0
-354 845 0
-354 351 0
355 -180 -33 0
-355 180 0
-355 33 0
356 -846 -354 0
-356 846 0
-356 354 0
357 -42 -28 0
-357 42 0
-357 28 0
358 -357 -703 0
-358 357 0
-358 703 0
359 -847 -356 0
-359 847 0
-359 356 0
360 -738 -719 0
-360 738 0
-360 719 0
361 -360 -19 0
-361 360 0
-361 19 0
362 -848 -359 0
-362 848 0
-362 359 0
363 -46 -703 0
-363 46 0
-363 703 0
364 -363 -5 0
-364 363 0
-364 5 0
365 -849 -362 0
-365 849 0
-365 362 0
366 -36 -799 0
-366 36 0
-366 799 0
367 -366 -797 0
-367 366 0
-367 797 0
368 -850 -365 0
-368 850 0
-368 365 0
369 -733 -721 0
-369 733 0
-369 721 0
370 -369 -750 0
-370 369 0
-370 750 0
371 -851 -368 0
-371 851 0
-371 368 0
372 -40 -697 0
-372 40 0
-372 697 0
373 -372 -781 0
-373 372 0
-373 781 0
374 -852 -371 0
-374 852 0
-374 371 0
375 -19 -12 0
-375 19 0
-375 12 0
376 -375 -3 0
-376 375 0
-376 3 0
377 -853 -374 0
-377 853 0
-377 374 0
378 -9 -696 0
-378 9 0
-378 696 0
379 -378 -749 0
-379 378 0
-379 749 0
380 -854 -377 0
-380 854 0
-380 377 0
381 -733 -705 0
-381 733 0
-381 705 0
382 -381 -776 0
-382 381 0
-382 776 0
383 -855 -380 0
-383 855 0
-383 380 0
384 -792 -856 0
-384 792 0
-384 856 0
385 -384 -10 0
-385 384 0
-385 10 0
386 -857 -383 0
-386 857 0
-386 383 0
387 -13 -726 0
-387 13 0
-387 726 0
388 -387 -723 0
-388 387 0
-388 723 0
389 -858 -386 0
-389 858 0
-389 386 0
390 -749 -4 0
-390 749 0
-390 4 0
391 -390 -797 0
-391 390 0
-391 797 0
392 -859 -389 0
-392 859 0
-392 389 0
393 -24 -8 0
-393 24 0
-393 8 0
394 -393 -750 0
-394 393 0
-394 750 0
395 -860 -392 0
-395 860 0
-395 392 0
396 -137 -11 0
-396 137 0
-396 11 0
397 -861 -395 0
-397 861 0
-397 395 0
398 -24 -19 0
-398 24 0
-398 19 0
399 -398 -743 0
-399 398 0
-399 743 0
400 -862 -397 0
-400 862 0
-400 397 0
401 -749 -717 0
-401 749 0
-401 717 0
402 -401 -706 0
-402 401 0
-402 706 0
403 -863 -400 0
-403 863 0
-403 400 0
404 -24 -9 0
-404 24 0
-404 9 0
405 -404 -714 0
-405 404 0
-405 714 0
406 -864 -403 0
-406 864 0
-406 403 0
407 -725 -12 0
-407 725 0
-407 12 0
408 -407 -36 0
-408 407 0
-408 36 0
409 -865 -406 0
-409 865 0
-409 406 0
410 -703 -3 0
-410 703 0
-410 3 0
411 -410 -22 0
-411 410 0
-411 22 0
412 -866 -409 0
-412 866 0
-412 409 0
413 -36 -18 0
-413 36 0
-413 18 0
414 -413 -21 0
-414 413 0
-414 21 0
415 -867 -412 0
-415 867 0
-415 412 0
416 -19 -743 0
-416 19 0
-416 743 0
417 -416 -807 0
-417 416 0
-417 807 0
418 -868 -415 0
-418 868 0
-418 415 0
419 -765 -738 0
-419 765 0
-419 738 0
420 -419 -733 0
-420 419 0
-420 733 0
421 -869 -418 0
-421 869 0
-421 418 0
422 -735 -856 0
-422 735 0
-422 856 0
423 -422 -7 0
-423 422 0
-423 7 0
424 -870 -421 0
-424 870 0
-424 421 0
425 -799 -726 0
-425 799 0
-425 726 0
426 -425 -781 0
-426 425 0
-426 781 0
427 -871 -424 0
-427 871 0
-427 424 0
428 -719 -716 0
-428 719 0
-428 716 0
429 -428 -21 0
-429 428 0
-429 21 0
430 -872 -427 0
-430 872 0
-430 427 0
431 -756 -23 0
-431 756 0
-431 23 0
432 -431 -781 0
-432 431 0
-432 781 0
433 -873 -430 0
-433 873 0
-433 430 0
434 -13 -1 0
-434 13 0
-434 1 0
435 -434 -47 0
-435 434 0
-435 47 0
436 -874 -433 0
-436 874 0
-436 433 0
437 -36 -705 0
-437 36 0
-437 705 0
438 -437 -1 0
-438 437 0
-438 1 0
439 -875 -436 0
-439 875 0
-439 436 0
440 -717 -8 0
-440 717 0
-440 8 0
441 -440 -708 0
-441 440 0
-441 708 0
442 -876 -439 0
-442 876 0
-442 439 0
443 -46 -759 0
-443 46 0
-443 759 0
444 -443 -45 0
-444 443 0
-444 45 0
445 -877 -442 0
-445 877 0
-445 442 0
446 -727 -9 0
-446 727 0
-446 9 0
447 -446 -23 0
-447 446 0
-447 23 0
448 -878 -445 0
-448 878 0
-448 445 0
449 -36 -698 0
-449 36 0
-449 698 0
450 -449 -731 0
-450 449 0
-450 731 0
451 -879 -448 0
-451 879 0
-451 448 0
452 -731 -15 0
-452 731 0
-452 15 0
453 -452 -19 0
-453 452 0
-453 19 0
454 -880 -451 0
-454 880 0
-454 451 0
455 -799 -1 0
-455 799 0
-455 1 0
456 -455 -722 0
-456 455 0
-456 722 0
457 -881 -454 0
-457 881 0
-457 454 0
458 -47 -733 0
-458 47 0
-458 733 0
459 -458 -751 0
-459 458 0
-459 751 0
460 -882 -457 0
-460 882 0
-460 457 0
461 -20 -12 0
-461 20 0
-461 12 0
462 -461 -729 0
-462 461 0
-462 729 0
463 -883 -460 0
-463 883 0
-463 460 0
464 -35 -799 0
-464 35 0
-464 799 0
465 -464 -19 0
-465 464 0
-465 19 0
466 -884 -463 0
-466 884 0
-466 463 0
467 -733 -18 0
-467 733 0
-467 18 0
468 -467 -714 0
-468 467 0
-468 714 0
469 -885 -466 0
-469 885 0
-469 466 0
470 -886 -8 0
-470 886 0
-470 8 0
471 -470 -708 0
-471 470 0
-471 708 0
472 -887 -469 0
-472 887 0
-472 469 0
473 -759 -27 0
-473 759 0
-473 27 0
474 -473 -783 0
-474 473 0
-474 783 0
475 -888 -472 0
-475 888 0
-475 472 0
476 -12 -703 0
-476 12 0
-476 703 0
477 -476 -33 0
-477 476 0
-477 33 0
478 -889 -475 0
-478 889 0
-478 475 0
479 -807 -697 0
-479 807 0
-479 697 0
480 -479 -33 0
-480 479 0
-480 33 0
481 -890 -478 0
-481 890 0
-481 478 0
482 -38 -21 0
-482 38 0
-482 21 0
483 -482 -727 0
-483 482 0
-483 727 0
484 -891 -481 0
-484 891 0
-484 481 0
485 -856 -892 0
-485 856 0
-485 892 0
486 -485 -25 0
-486 485 0
-486 25 0
487 -893 -484 0
-487 893 0
-487 484 0
488 -792 -35 0
-488 792 0
-488 35 0
489 -488 -714 0
-489 488 0
-489 714 0
490 -894 -487 0
-490 894 0
-490 487 0
491 -30 -794 0
-491 30 0
-491 794 0
492 -491 -23 0
-492 491 0
-492 23 0
493 -895 -490 0
-493 895 0
-493 490 0
494 -45 -776 0
-494 45 0
-494 776 0
495 -494 -17 0
-495 494 0
-495 17 0
496 -896 -493 0
-496 896 0
-496 493 0
497 -725 -716 0
-497 725 0
-497 716 0
498 -497 -721 0
-498 497 0
-498 721 0
499 -897 -496 0
-499 897 0
-499 496 0
500 -703 -702 0
-500 703 0
-500 702 0
501 -500 -727 0
-501 500 0
-501 727 0
502 -898 -499 0
-502 898 0
-502 499 0
503 -738 -16 0
-503 738 0
-503 16 0
504 -503 -13 0
-504 503 0
-504 13 0
505 -899 -502 0
-505 899 0
-505 502 0
506 -23 -706 0
-506 23 0
-506 706 0
507 -506 -33 0
-507 506 0
-507 33 0
508 -900 -505 0
-508 900 0
-508 505 0
509 -39 -710 0
-509 39 0
-509 710 0
510 -509 -43 0
-510 509 0
-510 43 0
511 -901 -508 0
-511 901 0
-511 508 0
512 -25 -697 0
-512 25 0
-512 697 0
513 -512 -26 0
-513 512 0
-513 26 0
514 -902 -511 0
-514 902 0
-514 511 0
515 -20 -776 0
-515 20 0
-515 776 0
516 -515 -717 0
-516 515 0
-516 717 0
517 -903 -514 0
-517 903 0
-517 514 0
518 -27 -716 0
-518 27 0
-518 716 0
519 -518 -783 0
-519 518 0
-519 783 0
520 -904 -517 0
-520 904 0
-520 517 0
521 -20 -696 0
-521 20 0
-521 696 0
522 -521 -17 0
-522 521 0
-522 17 0
523 -905 -520 0
-523 905 0
-523 520 0
524 -808 -6 0
-524 808 0
-524 6 0
525 -524 -706 0
-525 524 0
-525 706 0
526 -906 -523 0
-526 906 0
-526 523 0
527 -719 -808 0
-527 719 0
-527 808 0
528 -527 -716 0
-528 527 0
-528 716 0
529 -907 -526 0
-529 907 0
-529 526 0
530 -792 -742 0
-530 792 0
-530 742 0
531 -530 -721 0
-531 530 0
-531 721 0
532 -908 -529 0
-532 908 0
-532 529 0
533 -42 -4 0
-533 42 0
-533 4 0
534 -533 -34 0
-534 533 0
-534 34 0
535 -909 -532 0
-535 909 0
-535 532 0
536 -792 -886 0
-536 792 0
-536 886 0
537 -536 -703 0
-537 536 0
-537 703 0
538 -910 -535 0
-538 910 0
-538 535 0
539 -735 -722 0
-539 735 0
-539 722 0
540 -539 -8 0
-540 539 0
-540 8 0
541 -911 -538 0
-541 911 0
-541 538 0
542 -725 -15 0
-542 725 0
-542 15 0
543 -542 -40 0
-543 542 0
-543 40 0
544 -912 -541 0
-544 912 0
-544 541 0
545 -886 -702 0
-545 886 0
-545 702 0
546 -545 -722 0
-546 545 0
-546 722 0
547 -913 -544 0
-547 913 0
-547 544 0
548 -740 -2 0
-548 740 0
-548 2 0
549 -548 -726 0
-549 548 0
-549 726 0
550 -914 -547 0
-550 914 0
-550 547 0
551 -712 -20 0
-551 712 0
-551 20 0
552 -551 -714 0
-552 551 0
-552 714 0
553 -915 -550 0
-553 915 0
-553 550 0
554 -789 -716 0
-554 789 0
-554 716 0
555 -554 -761 0
-555 554 0
-555 761 0
556 -916 -553 0
-556 916 0
-556 553 0
557 -797 -2 0
-557 797 0
-557 2 0
558 -557 -8 0
-558 557 0
-558 8 0
559 -917 -556 0
-559 917 0
-559 556 0
560 -40 -725 0
-560 40 0
-560 725 0
561 -560 -789 0
-561 560 0
-561 789 0
562 -918 -559 0
-562 918 0
-562 559 0
563 -719 -776 0
-563 719 0
-563 776 0
564 -563 -17 0
-564 563 0
-564 17 0
565 -919 -562 0
-565 919 0
-565 562 0
566 -32 -7 0
-566 32 0
-566 7 0
567 -566 -10 0
-567 566 0
-567 10 0
568 -920 -565 0
-568 920 0
-568 565 0
569 -40 -8 0
-569 40 0
-569 8 0
570 -569 -781 0
-570 569 0
-570 781 0
571 -921 -568 0
-571 921 0
-571 568 0
572 -36 -719 0
-572 36 0
-572 719 0
573 -572 -726 0
-573 572 0
-573 726 0
574 -922 -571 0
-574 922 0
-574 571 0
575 -733 -731 0
-575 733 0
-575 731 0
576 -575 -33 0
-576 575 0
-576 33 0
577 -923 -574 0
-577 923 0
-577 574 0
578 -783 -44 0
-578 783 0
-578 44 0
579 -578 -706 0
-579 578 0
-579 706 0
580 -924 -577 0
-580 924 0
-580 577 0
581 -45 -10 0
-581 45 0
-581 10 0
582 -581 -708 0
-582 581 0
-582 708 0
583 -925 -580 0
-583 925 0
-583 580 0
584 -749 -6 0
-584 749 0
-584 6 0
585 -584 -727 0
-585 584 0
-585 727 0
586 -926 -583 0
-586 926 0
-586 583 0
587 -749 -13 0
-587 749 0
-587 13 0
588 -587 -3 0
-588 587 0
-588 3 0
589 -927 -586 0
-589 927 0
-589 586 0
590 -886 -26 0
-590 886 0
-590 26 0
591 -590 -717 0
-591 590 0
-591 717 0
592 -928 -589 0
-592 928 0
-592 589 0
593 -756 -733 0
-593 756 0
-593 733 0
594 -593 -750 0
-594 593 0
-594 750 0
595 -929 -592 0
-595 929 0
-595 592 0
596 -42 -710 0
-596 42 0
-596 710 0
597 -596 -14 0
-597 596 0
-597 14 0
598 -930 -595 0
-598 930 0
-598 595 0
599 -50 -856 0
-599 50 0
-599 856 0
600 -599 -31 0
-600 599 0
-600 31 0
601 -931 -598 0
-601 931 0
-601 598 0
602 -735 -708 0
-602 735 0
-602 708 0
603 -602 -783 0
-603 602 0
-603 783 0
604 -932 -601 0
-604 932 0
-604 601 0
605 -366 -716 0
-605 366 0
-605 716 0
606 -933 -604 0
-606 933 0
-606 604 0
607 -781 -32 0
-607 781 0
-607 32 0
608 -607 -5 0
-608 607 0
-608 5 0
609 -934 -606 0
-609 934 0
-609 606 0
610 -41 -708 0
-610 41 0
-610 708 0
611 -610 -33 0
-611 610 0
-611 33 0
612 -935 -609 0
-612 935 0
-612 609 0
613 -42 -740 0
-613 42 0
-613 740 0
614 -613 -754 0
-614 613 0
-614 754 0
615 -936 -612 0
-615 936 0
-615 612 0
616 -37 -725 0
-616 37 0
-616 725 0
617 -616 -39 0
-617 616 0
-617 39 0
618 -937 -615 0
-618 937 0
-618 615 0
619 -443 -761 0
-619 443 0
-619 761 0
620 -938 -618 0
-620 938 0
-620 618 0
621 -702 -794 0
-621 702 0
-621 794 0
622 -621 -721 0
-622 621 0
-622 721 0
623 -939 -620 0
-623 939 0
-623 620 0
624 -41 -799 0
-624 41 0
-624 799 0
625 -624 -20 0
-625 624 0
-625 20 0
626 -940 -623 0
-626 940 0
-626 623 0
627 -797 -38 0
-627 797 0
-627 38 0
628 -627 -28 0
-628 627 0
-628 28 0
629 -941 -626 0
-629 941 0
-629 626 0
630 -733 -722 0
-630 733 0
-630 722 0
631 -630 -712 0
-631 630 0
-631 712 0
632 -942 -629 0
-632 942 0
-632 629 0
633 -44 -17 0
-633 44 0
-633 17 0
634 -633 -706 0
-634 633 0
-634 706 0
635 -943 -632 0
-635 943 0
-635 632 0
636 -31 -30 0
-636 31 0
-636 30 0
637 -636 -783 0
-637 636 0
-637 783 0
638 -944 -635 0
-638 944 0
-638 635 0
639 -765 -6 0
-639 765 0
-639 6 0
640 -639 -776 0
-640 639 0
-640 776 0
641 -945 -638 0
-641 945 0
-641 638 0
642 -721 -4 0
-642 721 0
-642 4 0
643 -642 -5 0
-643 642 0
-643 5 0
644 -946 -641 0
-644 946 0
-644 641 0
645 -765 -4 0
-645 765 0
-645 4 0
646 -645 -761 0
-646 645 0
-646 761 0
647 -947 -644 0
-647 947 0
-647 644 0
648 -36 -8 0
-648 36 0
-648 8 0
649 -648 -14 0
-649 648 0
-649 14 0
650 -948 -647 0
-650 948 0
-650 647 0
651 -892 -3 0
-651 892 0
-651 3 0
652 -651 -721 0
-652 651 0
-652 721 0
653 -949 -650 0
-653 949 0
-653 650 0
654 -710 -808 0
-654 710 0
-654 808 0
655 -654 -721 0
-655 654 0
-655 721 0
656 -950 -653 0
-656 950 0
-656 653 0
657 -731 -1 0
-657 731 0
-657 1 0
658 -657 -794 0
-658 657 0
-658 794 0
659 -951 -656 0
-659 951 0
-659 656 0
660 -25 -7 0
-660 25 0
-660 7 0
661 -660 -761 0
-661 660 0
-661 761 0
662 -952 -659 0
-662 952 0
-662 659 0
663 -740 -716 0
-663 740 0
-663 716 0
664 -663 -723 0
-664 663 0
-664 723 0
665 -953 -662 0
-665 953 0
-665 662 0
666 -708 -698 0
-666 708 0
-666 698 0
667 -666 -750 0
-667 666 0
-667 750 0
668 -954 -665 0
-668 954 0
-668 665 0
669 -799 -2 0
-669 799 0
-669 2 0
670 -669 -714 0
-670 669 0
-670 714 0
671 -955 -668 0
-671 955 0
-671 668 0
672 -742 -750 0
-672 742 0
-672 750 0
673 -672 -47 0
-673 672 0
-673 47 0
674 -956 -671 0
-674 956 0
-674 671 0
675 -41 -1 0
-675 41 0
-675 1 0
676 -675 -19 0
-676 675 0
-676 19 0
677 -957 -674 0
-677 957 0
-677 674 0
678 -45 -698 0
-678 45 0
-678 698 0
679 -678 -31 0
-679 678 0
-679 31 0
680 -958 -677 0
-680 958 0
-680 677 0
681 -25 -799 0
-681 25 0
-681 799 0
682 -681 -722 0
-682 681 0
-682 722 0
683 -959 -680 0
-683 959 0
-683 680 0
684 -37 -3 0
-684 37 0
-684 3 0
685 -684 -750 0
-685 684 0
-685 750 0
686 -960 -683 0
-686 960 0
-686 683 0
687 -808 -1 0
-687 808 0
-687 1 0
688 -687 -20 0
-688 687 0
-688 20 0
689 -961 -686 0
-689 961 0
-689 686 0
690 -856 -12 0
-690 856 0
-690 12 0
691 -690 -794 0
-691 690 0
-691 794 0
692 -962 -689 0
-692 962 0
-692 689 0
693 -761 -742 0
-693 761 0
-693 742 0
694 -693 -22 0
-694 693 0
-694 22 0
695 -963 -692 0
-695 963 0
-695 692 0
-696 -2 0
696 2 0
-697 -4 0
697 4 0
-698 -1 0
698 1 0
-699 -54 0
699 54 0
-700 -52 0
700 52 0
-701 -57 0
701 57 0
-702 -9 0
702 9 0
-703 -11 0
703 11 0
-704 -60 0
704 60 0
-705 -12 0
705 12 0
-706 -14 0
706 14 0
-707 -63 0
707 63 0
-708 -17 0
708 17 0
-709 -66 0
709 66 0
-710 -18 0
710 18 0
-711 -69 0
711 69 0
-712 -21 0
712 21 0
-713 -72 0
713 72 0
-714 -22 0
714 22 0
-715 -75 0
715 75 0
-716 -13 0
716 13 0
-717 -10 0
717 10 0
-718 -78 0
718 78 0
-719 -26 0
719 26 0
-720 -81 0
720 81 0
-721 -28 0
721 28 0
-722 -27 0
722 27 0
-723 -29 0
723 29 0
-724 -84 0
724 84 0
-725 -30 0
725 30 0
-726 -8 0
726 8 0
-727 -31 0
727 31 0
-728 -87 0
728 87 0
-729 -32 0
729 32 0
-730 -90 0
730 90 0
-731 -25 0
731 25 0
-732 -93 0
732 93 0
-733 -34 0
733 34 0
-734 -96 0
734 96 0
-735 -35 0
735 35 0
-736 -99 0
736 99 0
-737 -102 0
737 102 0
-738 -36 0
738 36 0
-739 -105 0
739 105 0
-740 -37 0
740 37 0
-741 -108 0
741 108 0
-742 -38 0
742 38 0
-743 -3 0
743 3 0
-744 -33 0
744 33 0
-745 -111 0
745 111 0
-746 -114 0
746 114 0
-747 -117 0
747 117 0
-748 -120 0
748 120 0
-749 -40 0
749 40 0
-750 -23 0
750 23 0
-751 -5 0
751 5 0
-752 -123 0
752 123 0
-753 -126 0
753 126 0
-754 -20 0
754 20 0
-755 -129 0
755 129 0
-756 -41 0
756 41 0
-757 -132 0
757 132 0
-758 -135 0
758 135 0
-759 -39 0
759 39 0
-760 -138 0
760 138 0
-761 -43 0
761 43 0
-762 -141 0
762 141 0
-763 -144 0
763 144 0
-764 -147 0
764 147 0
-765 -44 0
765 44 0
-766 -150 0
766 150 0
-767 -152 0
767 152 0
-768 -155 0
768 155 0
-769 -157 0
769 157 0
-770 -160 0
770 160 0
-771 -163 0
771 163 0
-772 -166 0
772 166 0
-773 -169 0
773 169 0
-774 -172 0
774 172 0
-775 -175 0
775 175 0
-776 -19 0
776 19 0
-777 -178 0
777 178 0
-778 -181 0
778 181 0
-779 -184 0
779 184 0
-780 -187 0
780 187 0
-781 -47 0
781 47 0
-782 -190 0
782 190 0
-783 -48 0
783 48 0
-784 -193 0
784 193 0
-785 -196 0
785 196 0
-786 -199 0
786 199 0
-787 -202 0
787 202 0
-788 -205 0
788 205 0
-789 -45 0
789 45 0
-790 -208 0
790 208 0
-791 -211 0
791 211 0
-792 -49 0
792 49 0
-793 -214 0
793 214 0
-794 -7 0
794 7 0
-795 -217 0
795 217 0
-796 -220 0
796 220 0
-797 -46 0
797 46 0
-798 -223 0
798 223 0
-799 -15 0
799 15 0
-800 -226 0
800 226 0
-801 -229 0
801 229 0
-802 -232 0
802 232 0
-803 -235 0
803 235 0
-804 -238 0
804 238 0
-805 -241 0
805 241 0
-806 -244 0
806 244 0
-807 -50 0
807 50 0
-808 -16 0
808 16 0
-809 -247 0
809 247 0
-810 -250 0
810 250 0
-811 -253 0
811 253 0
-812 -256 0
812 256 0
-813 -259 0
813 259 0
-814 -262 0
814 262 0
-815 -264 0
815 264 0
-816 -267 0
816 267 0
-817 -270 0
817 270 0
-818 -273 0
818 273 0
-819 -276 0
819 276 0
-820 -279 0
820 279 0
-821 -282 0
821 282 0
-822 -285 0
822 285 0
-823 -288 0
823 288 0
-824 -291 0
824 291 0
-825 -294 0
825 294 0
-826 -297 0
826 297 0
-827 -300 0
827 300 0
-828 -303 0
828 303 0
-829 -306 0
829 306 0
-830 -309 0
830 309 0
-831 -312 0
831 312 0
-832 -315 0
832 315 0
-833 -318 0
833 318 0
-834 -321 0
834 321 0
-835 -323 0
835 323 0
-836 -326 0
836 326 0
-837 -329 0
837 329 0
-838 -332 0
838 332 0
-839 -335 0
839 335 0
-840 -338 0
840 338 0
-841 -341 0
841 341 0
-842 -344 0
842 344 0
-843 -347 0
843 347 0
-844 -350 0
844 350 0
-845 -353 0
845 353 0
-846 -355 0
846 355 0
-847 -358 0
847 358 0
-848 -361 0
848 361 0
-849 -364 0
849 364 0
-850 -367 0
850 367 0
-851 -370 0
851 370 0
-852 -373 0
852 373 0
-853 -376 0
853 376 0
-854 -379 0
854 379 0
-855 -382 0
855 382 0
-856 -24 0
856 24 0
-857 -385 0
857 385 0
-858 -388 0
858 388 0
-859 -391 0
859 391 0
-860 -394 0
860 394 0
-861 -396 0
861 396 0
-862 -399 0
862 399 0
-863 -402 0
863 402 0
-864 -405 0
864 405 0
-865 -408 0
865 408 0
-866 -411 0
866 411 0
-867 -414 0
867 414 0
-868 -417 0
868 417 0
-869 -420 0
869 420 0
-870 -423 0
870 423 0
-871 -426 0
871 426 0
-872 -429 0
872 429 0
-873 -432 0
873 432 0
-874 -435 0
874 435 0
-875 -438 0
875 438 0
-876 -441 0
876 441 0
-877 -444 0
877 444 0
-878 -447 0
878 447 0
-879 -450 0
879 450 0
-880 -453 0
880 453 0
-881 -456 0
881 456 0
-882 -459 0
882 459 0
-883 -462 0
883 462 0
-884 -465 0
884 465 0
-885 -468 0
885 468 0
-886 -42 0
886 42 0
-887 -471 0
887 471 0
-888 -474 0
888 474 0
-889 -477 0
889 477 0
-890 -480 0
890 480 0
-891 -483 0
891 483 0
-892 -6 0
892 6 0
-893 -486 0
893 486 0
-894 -489 0
894 489 0
-895 -492 0
895 492 0
-896 -495 0
896 495 0
-897 -498 0
897 498 0
-898 -501 0
898 501 0
-899 -504 0
899 504 0
-900 -507 0
900 507 0
-901 -510 0
901 510 0
-902 -513 0
902 513 0
-903 -516 0
903 516 0
-904 -519 0
904 519 0
-905 -522 0
905 522 0
-906 -525 0
906 525 0
-907 -528 0
907 528 0
-908 -531 0
908 531 0
-909 -534 0
909 534 0
-910 -537 0
910 537 0
-911 -540 0
911 540 0
-912 -543 0
912 543 0
-913 -546 0
913 546 0
-914 -549 0
914 549 0
-915 -552 0
915 552 0
-916 -555 0
916 555 0
-917 -558 0
917 558 0
-918 -561 0
918 561 0
-919 -564 0
919 564 0
-920 -567 0
920 567 0
-921 -570 0
921 570 0
-922 -573 0
922 573 0
-923 -576 0
923 576 0
-924 -579 0
924 579 0
-925 -582 0
925 582 0
-926 -585 0
926 585 0
-927 -588 0
927 588 0
-928 -591 0
928 591 0
-929 -594 0
929 594 0
-930 -597 0
930 597 0
-931 -600 0
931 600 0
-932 -603 0
932 603 0
-933 -605 0
933 605 0
-934 -608 0
934 608 0
-935 -611 0
935 611 0
-936 -614 0
936 614 0
-937 -617 0
937 617 0
-938 -619 0
938 619 0
-939 -622 0
939 622 0
-940 -625 0
940 625 0
-941 -628 0
941 628 0
-942 -631 0
942 631 0
-943 -634 0
943 634 0
-944 -637 0
944 637 0
-945 -640 0
945 640 0
-946 -643 0
946 643 0
-947 -646 0
947 646 0
-948 -649 0
948 649 0
-949 -652 0
949 652 0
-950 -655 0
950 655 0
-951 -658 0
951 658 0
-952 -661 0
952 661 0
-953 -664 0
953 664 0
-954 -667 0
954 667 0
-955 -670 0
955 670 0
-956 -673 0
956 673 0
-957 -676 0
957 676 0
-958 -679 0
958 679 0
-959 -682 0
959 682 0
-960 -685 0
960 685 0
-961 -688 0
961 688 0
-962 -691 0
962 691 0
-963 -694 0
963 694 0
695 0
